treewidth/data/F26AGraph.gr
p tw 26 39
1 2
1 24
1 19
2 13
2 14
13 20
13 26
20 21
20 16
21 22
21 4
22 23
22 18
23 24
23 6
24 25
25 26
25 8
26 3
3 4
3 10
4 5
5 6
5 12
6 7
7 8
7 15
8 9
9 10
9 17
10 11
11 12
11 19
12 14
14 15
15 16
16 17
17 18
18 19
