treewidth/data/F26AGraph.td
c width = 7, time = 0.190595
s td 15 8 26
b 1 1 3 7 12 16 18 21 25
b 2 1 3 7 12 13 16 21 25
b 3 1 2 7 12 13 14 15 16
b 4 13 16 20 21
b 5 3 13 25 26
b 6 1 3 7 12 18 21 23 25
b 7 3 4 5 6 7 12 21 23
b 8 18 21 22 23
b 9 1 23 24 25
b 10 1 3 7 11 12 16 18 25
b 11 3 7 9 11 16 18 25
b 12 7 8 9 25
b 13 3 9 10 11
b 14 9 16 17 18
b 15 1 11 18 19
2 3
2 4
2 5
1 2
6 7
6 8
6 9
1 6
11 12
11 13
11 14
10 11
10 15
1 10
